
  23    0


   0  12 2 3 4 5 6 7 8 9 10 11 21 22 
   8   5 19 18 15 13 12 
   1   4 19 14 13 12 
   9   3 18 13 12 
  10   2 20 17 
   8   2 17 12 
  10   1 16 
  10   1 16 
   9   1 12 
   1   1 15 
   5   1 14 
   5   1 23
   6   1 23
   2   1 23
   3   1 23
   9   1 23
   7   1 23
   3   1 23
   6   1 23
   8   1 23
  10   1 23
   4   1 23
   0   0 
